NAME: random-58-14827
TYPE: TSP
COMMENT: size=58 seed=14827
DIMENSION: 118
EDGE_WEIGHT_TYPE: EUC_2D
NODE_COORD_SECTION
+0 389 273
-0 389 273
+1 457 782
-1 929 51
+2 384 217
-2 38 908
+3 844 470
-3 825 90
+4 132 125
-4 132 947
+5 651 9
-5 739 474
+6 858 227
-6 12 241
+7 136 833
-7 660 355
+8 947 968
-8 159 189
+9 773 118
-9 815 815
+10 395 248
-10 53 882
+11 75 296
-11 401 558
+12 617 149
-12 319 830
+13 841 516
-13 514 434
+14 737 169
-14 750 422
+15 883 222
-15 238 538
+16 111 803
-16 917 201
+17 912 420
-17 765 622
+18 269 548
-18 817 936
+19 804 198
-19 845 170
+20 827 612
-20 138 398
+21 728 167
-21 183 623
+22 731 868
-22 797 694
+23 647 744
-23 596 761
+24 609 80
-24 755 215
+25 325 580
-25 391 88
+26 786 741
-26 20 289
+27 310 278
-27 888 219
+28 481 443
-28 337 298
+29 338 335
-29 277 73
+30 217 702
-30 770 742
+31 159 508
-31 269 931
+32 708 498
-32 337 659
+33 651 610
-33 469 11
+34 142 835
-34 135 688
+35 327 482
-35 811 327
+36 819 510
-36 286 908
+37 559 741
-37 484 296
+38 969 46
-38 207 911
+39 937 88
-39 683 373
+40 643 54
-40 867 379
+41 86 995
-41 959 53
+42 626 917
-42 487 81
+43 399 938
-43 697 778
+44 306 552
-44 904 919
+45 641 677
-45 826 742
+46 602 818
-46 20 923
+47 145 679
-47 499 389
+48 251 418
-48 593 727
+49 799 590
-49 622 835
+50 683 48
-50 994 795
+51 497 22
-51 261 622
+52 412 33
-52 481 957
+53 247 777
-53 938 827
+54 32 454
-54 288 774
+55 406 235
-55 622 750
+56 990 950
-56 145 273
+57 986 197
-57 958 308
+58 683 7
-58 366 660
PRECEDENCE_SECTION
+0 -0
+1 -1
+2 -2
+3 -3
+4 -4
+5 -5
+6 -6
+7 -7
+8 -8
+9 -9
+10 -10
+11 -11
+12 -12
+13 -13
+14 -14
+15 -15
+16 -16
+17 -17
+18 -18
+19 -19
+20 -20
+21 -21
+22 -22
+23 -23
+24 -24
+25 -25
+26 -26
+27 -27
+28 -28
+29 -29
+30 -30
+31 -31
+32 -32
+33 -33
+34 -34
+35 -35
+36 -36
+37 -37
+38 -38
+39 -39
+40 -40
+41 -41
+42 -42
+43 -43
+44 -44
+45 -45
+46 -46
+47 -47
+48 -48
+49 -49
+50 -50
+51 -51
+52 -52
+53 -53
+54 -54
+55 -55
+56 -56
+57 -57
+58 -58
EOF
